results_rootrelaxation/bin018_050_004.srr.sol
solution status: optimal solution found
objective value:                                    0
_var359_                            0.173285688602233 	(obj:0)
_var1823_                          0.0422478333525083 	(obj:0)
_var2179_                            0.17609108285238 	(obj:0)
_var2194_                         0.00242715939687638 	(obj:0)
_var2701_                          0.0244710805456384 	(obj:0)
_var2707_                           0.175581700208548 	(obj:0)
_var2712_                           0.142935679188974 	(obj:0)
_var2714_                           0.119591570920421 	(obj:0)
_var2717_                           0.258443376242894 	(obj:0)
_var2718_                           0.115113722344328 	(obj:0)
_var2736_                           0.101518915138778 	(obj:0)
_var2740_                            0.16654732572133 	(obj:0)
_var2750_                          0.0607231863627504 	(obj:0)
_var2751_                           0.238615014446962 	(obj:0)
_var2752_                           0.227796671089658 	(obj:0)
_var2753_                           0.171512575581904 	(obj:0)
_var2754_                           0.364802754799723 	(obj:0)
_var2757_                           0.258386188994449 	(obj:0)
_var2758_                           0.104349741370959 	(obj:0)
_var2761_                          0.0556717216536131 	(obj:0)
_var2763_                          0.0679136030554402 	(obj:0)
_var2764_                          0.0352454859547447 	(obj:0)
_var2765_                          0.0590367221594697 	(obj:0)
_var2768_                           0.217269112041035 	(obj:0)
_var2769_                           0.020623937856084 	(obj:0)
_var2774_                          0.0921939164360914 	(obj:0)
_var2776_                           0.352654584426277 	(obj:0)
_var2777_                          0.0763030948730525 	(obj:0)
_var2778_                            0.20984978161669 	(obj:0)
_var2781_                           0.183042056212077 	(obj:0)
_var2783_                           0.194261306845297 	(obj:0)
_var2786_                           0.128221854955253 	(obj:0)
_var2789_                          0.0995153357131592 	(obj:0)
_var2790_                           0.396584855674349 	(obj:0)
_var2792_                          0.0676998324646942 	(obj:0)
_var2794_                          0.0547751543287254 	(obj:0)
_var2796_                           0.219643998887568 	(obj:0)
_var2797_                           0.172550006284129 	(obj:0)
_var2799_                          0.0637657725959177 	(obj:0)
_var2800_                           0.272401645012566 	(obj:0)
_var2803_                          0.0966512647187464 	(obj:0)
_var2804_                           0.316959981013948 	(obj:0)
_var2805_                           0.218428961643083 	(obj:0)
_var2806_                           0.212396951063049 	(obj:0)
_var2810_                           0.382863602475306 	(obj:0)
_var2811_                           0.217367661107829 	(obj:0)
_var2813_                           0.128943464859404 	(obj:0)
_var2815_                          0.0227658835679874 	(obj:0)
_var2816_                          0.0543968239638708 	(obj:0)
_var2817_                           0.106480953190043 	(obj:0)
_var2818_                          0.0958512444084973 	(obj:0)
_var2828_                           0.130743613029397 	(obj:0)
_var2835_                          0.0367506348302994 	(obj:0)
_var2836_                          0.0375276752318484 	(obj:0)
_var2839_                           0.120003209733212 	(obj:0)
_var2840_                           0.241711792200257 	(obj:0)
_var2841_                           0.110766976257617 	(obj:0)
_var2842_                          0.0347941717157689 	(obj:0)
_var2843_                           0.091488988071681 	(obj:0)
_var2846_                           0.134245445306281 	(obj:0)
_var2847_                           0.196701768601533 	(obj:0)
_var2848_                           0.272536472558217 	(obj:0)
_var2849_                          0.0491620334769381 	(obj:0)
_var2850_                           0.179220071415892 	(obj:0)
_var2851_                          0.0259203242286221 	(obj:0)
_var2852_                          0.0474978673619209 	(obj:0)
_var2854_                           0.215729010228905 	(obj:0)
_var2855_                           0.170379750057636 	(obj:0)
_var2857_                          0.0157000503838945 	(obj:0)
_var2858_                          0.0334724109189227 	(obj:0)
_var2860_                           0.186762041775219 	(obj:0)
_var2862_                          0.0277478152239714 	(obj:0)
_var2863_                          0.0738082129080227 	(obj:0)
_var2864_                          0.0671314765759641 	(obj:0)
_var2867_                           0.213321693725617 	(obj:0)
_var2868_                           0.100477604802279 	(obj:0)
_var2873_                           0.145554827269858 	(obj:0)
_var2874_                           0.134783429194674 	(obj:0)
_var2877_                          0.0260662804744154 	(obj:0)
_var2879_                          0.0272633334189164 	(obj:0)
_var2880_                           0.230547678699027 	(obj:0)
_var2881_                           0.245606438662784 	(obj:0)
_var2883_                          0.0316586226700438 	(obj:0)
_var2885_                            0.04198740852353 	(obj:0)
_var2886_                           0.117971294099978 	(obj:0)
_var2891_                          0.0184235452483118 	(obj:0)
_var2892_                           0.185535517612567 	(obj:0)
_var2894_                           0.101527685276181 	(obj:0)
_var2896_                           0.151316518917433 	(obj:0)
_var2897_                           0.181637533706068 	(obj:0)
_var2898_                          0.0494454435221466 	(obj:0)
_var2899_                          0.0891527019540743 	(obj:0)
_var2901_                           0.104486921284465 	(obj:0)
_var2902_                           0.129097723251144 	(obj:0)
_var2903_                           0.386885085446817 	(obj:0)
_var2904_                          0.0347381380329842 	(obj:0)
_var2905_                          0.0785834227598388 	(obj:0)
_var2908_                          0.0284846179470735 	(obj:0)
_var2913_                          0.0690859764152908 	(obj:0)
_var2914_                         0.00725770344012795 	(obj:0)
_var2917_                           0.386224558812264 	(obj:0)
_var2918_                           0.122169871240821 	(obj:0)
_var2919_                          0.0666266794526438 	(obj:0)
_var2920_                          0.0347986068204683 	(obj:0)
_var2921_                          0.0820608276602051 	(obj:0)
_var2922_                          0.0129691282863043 	(obj:0)
_var2925_                           0.205085665845313 	(obj:0)
_var2927_                             0.2080580056123 	(obj:0)
_var2931_                          0.0155464536144997 	(obj:0)
_var2933_                           0.234062941334389 	(obj:0)
_var2934_                           0.185981628296196 	(obj:0)
_var2935_                           0.048193975864897 	(obj:0)
_var2936_                          0.0132048135687785 	(obj:0)
_var2937_                          0.0698514557670463 	(obj:0)
_var2938_                          0.0641351614219555 	(obj:0)
_var2939_                           0.026001899354043 	(obj:0)
_var2941_                           0.059156961050661 	(obj:0)
_var2944_                          0.0639293086676829 	(obj:0)
_var2945_                           0.148603130082548 	(obj:0)
_var2946_                           0.125089251070088 	(obj:0)
_var2948_                          0.0813243477943946 	(obj:0)
_var2951_                          0.0772640814531472 	(obj:0)
_var2954_                           0.046512623674037 	(obj:0)
_var2956_                          0.0163926963343701 	(obj:0)
_var2957_                           0.178754391799613 	(obj:0)
_var2958_                          0.0162880910257164 	(obj:0)
_var2959_                          0.0414714530073916 	(obj:0)
_var2960_                          0.0712715383360569 	(obj:0)
_var2964_                           0.150148046550316 	(obj:0)
_var2967_                          0.0208485956247764 	(obj:0)
_var2968_                          0.0286556495565994 	(obj:0)
_var2971_                           0.061268838538537 	(obj:0)
_var2973_                           0.037445311526832 	(obj:0)
_var2975_                          0.0721407188736751 	(obj:0)
_var2977_                          0.0290830125982532 	(obj:0)
_var2979_                          0.0412620942468046 	(obj:0)
_var2980_                           0.139392562028329 	(obj:0)
_var2982_                          0.0101111212612759 	(obj:0)
_var2983_                          0.0333133921764669 	(obj:0)
_var2986_                         0.00651803173455512 	(obj:0)
_var2987_                          0.0495415411250959 	(obj:0)
_var2988_                          0.0418891626896501 	(obj:0)
_var2989_                          0.0672106949221159 	(obj:0)
_var2991_                          0.0516336052961868 	(obj:0)
_var2992_                         0.00362447560407331 	(obj:0)
_var2996_                         0.00684611751635437 	(obj:0)
_var2998_                          0.0952487861350682 	(obj:0)
_var3000_                          0.0592140167141312 	(obj:0)
_var3003_                          0.0233007423137343 	(obj:0)
_var3008_                         0.00924078111193417 	(obj:0)
_var3013_                         0.00756455516009069 	(obj:0)
_var3020_                         0.00599780278033871 	(obj:0)
