results_rootrelaxation/bin018_050_004.srr.log
SCIP version 8.0.3.5 [precision: 8 byte] [memory: block] [mode: optimized] [LP solver: Soplex 6.0.1.3] [GitHash: 438792519e]
Copyright (c) 2002-2023 Zuse Institute Berlin (ZIB)

External libraries: 
  Readline 8.1         GNU library for command line editing (gnu.org/s/readline)
  Soplex 6.0.1.3       Linear Programming Solver developed at Zuse Institute Berlin (soplex.zib.de) [GitHash: 713be0fe]
  CppAD 20180000.0     Algorithmic Differentiation of C++ algorithms developed by B. Bell (github.com/coin-or/CppAD)
  ZLIB 1.2.11          General purpose compression library by J. Gailly and M. Adler (zlib.net)
  bliss 0.77           Computing Graph Automorphism Groups by T. Junttila and P. Kaski (www.tcs.hut.fi/Software/bliss/)

user parameter file <scip.set> not found - using default parameters

srr/relaxation = TRUE

read problem <instances/bin018_050_004.srr>
============

Original problem: 
original problem has 0 variables (0 bin, 0 int, 0 impl, 0 cont) and 170 constraints

presolving:
presolving (1 rounds: 1 fast, 1 medium, 1 exhaustive):
 0 deleted vars, 0 deleted constraints, 0 added constraints, 0 tightened bounds, 0 added holes, 0 changed sides, 0 changed coefficients
 0 implications, 0 cliques
presolved problem has 0 variables (0 bin, 0 int, 0 impl, 0 cont) and 170 constraints
    170 constraints of type <linear>
Presolving Time: 0.00

 time | node  | left  |LP iter|LP it/n|mem/heur|mdpt |vars |cons |rows |cuts |sepa|confs|strbr|  dualbound   | primalbound  |  gap   | compl. 
  0.0s|     1 |     0 |     1 |     - |   922k |   0 |   1 | 170 | 170 |   0 |  0 |   0 |   0 |      --      |      --      |    Inf | unknown
  0.2s|     1 |     0 |  1546 |     - |  7161k |   0 |1627 | 170 | 170 |   0 |  0 |   0 |   0 |      --      |      --      |    Inf | unknown
r 0.9s|     1 |     0 |  7009 |     - |simplero|   0 |2681 | 170 | 170 |   0 |  0 |   0 |   0 |      --      | 3.439945e+01 |    Inf | unknown
r 0.9s|     1 |     0 |  7102 |     - |simplero|   0 |2698 | 170 | 170 |   0 |  0 |   0 |   0 |      --      | 3.334617e+01 |    Inf | unknown
r 0.9s|     1 |     0 |  7245 |     - |simplero|   0 |2715 | 170 | 170 |   0 |  0 |   0 |   0 |      --      | 3.062327e+01 |    Inf | unknown
r 0.9s|     1 |     0 |  7367 |     - |simplero|   0 |2732 | 170 | 170 |   0 |  0 |   0 |   0 |      --      | 2.868064e+01 |    Inf | unknown
r 1.0s|     1 |     0 |  7416 |     - |simplero|   0 |2732 | 170 | 170 |   0 |  0 |   0 |   0 |      --      | 2.845082e+01 |    Inf | unknown
r 1.0s|     1 |     0 |  7441 |     - |simplero|   0 |2732 | 170 | 170 |   0 |  0 |   0 |   0 |      --      | 2.841102e+01 |    Inf | unknown
r 1.0s|     1 |     0 |  7446 |     - |simplero|   0 |2732 | 170 | 170 |   0 |  0 |   0 |   0 |      --      | 2.840464e+01 |    Inf | unknown
r 1.0s|     1 |     0 |  7581 |     - |simplero|   0 |2749 | 170 | 170 |   0 |  0 |   0 |   0 |      --      | 2.599814e+01 |    Inf | unknown
r 1.0s|     1 |     0 |  7617 |     - |simplero|   0 |2749 | 170 | 170 |   0 |  0 |   0 |   0 |      --      | 2.591333e+01 |    Inf | unknown
r 1.0s|     1 |     0 |  7754 |     - |simplero|   0 |2766 | 170 | 170 |   0 |  0 |   0 |   0 |      --      | 2.456028e+01 |    Inf | unknown
r 1.0s|     1 |     0 |  7831 |     - |simplero|   0 |2766 | 170 | 170 |   0 |  0 |   0 |   0 |      --      | 2.388423e+01 |    Inf | unknown
r 1.0s|     1 |     0 |  7836 |     - |simplero|   0 |2766 | 170 | 170 |   0 |  0 |   0 |   0 |      --      | 2.388402e+01 |    Inf | unknown
r 1.0s|     1 |     0 |  7968 |     - |simplero|   0 |2783 | 170 | 170 |   0 |  0 |   0 |   0 |      --      | 2.173195e+01 |    Inf | unknown
 time | node  | left  |LP iter|LP it/n|mem/heur|mdpt |vars |cons |rows |cuts |sepa|confs|strbr|  dualbound   | primalbound  |  gap   | compl. 
r 1.0s|     1 |     0 |  7995 |     - |simplero|   0 |2783 | 170 | 170 |   0 |  0 |   0 |   0 |      --      | 2.166069e+01 |    Inf | unknown
r 1.0s|     1 |     0 |  7997 |     - |simplero|   0 |2783 | 170 | 170 |   0 |  0 |   0 |   0 |      --      | 2.166054e+01 |    Inf | unknown
r 1.1s|     1 |     0 |  8111 |     - |simplero|   0 |2800 | 170 | 170 |   0 |  0 |   0 |   0 |      --      | 1.946729e+01 |    Inf | unknown
r 1.1s|     1 |     0 |  8235 |     - |simplero|   0 |2800 | 170 | 170 |   0 |  0 |   0 |   0 |      --      | 1.839436e+01 |    Inf | unknown
r 1.1s|     1 |     0 |  8296 |     - |simplero|   0 |2800 | 170 | 170 |   0 |  0 |   0 |   0 |      --      | 1.817497e+01 |    Inf | unknown
r 1.1s|     1 |     0 |  8309 |     - |simplero|   0 |2800 | 170 | 170 |   0 |  0 |   0 |   0 |      --      | 1.816232e+01 |    Inf | unknown
r 1.1s|     1 |     0 |  8310 |     - |simplero|   0 |2800 | 170 | 170 |   0 |  0 |   0 |   0 |      --      | 1.816232e+01 |    Inf | unknown
r 1.1s|     1 |     0 |  8475 |     - |simplero|   0 |2817 | 170 | 170 |   0 |  0 |   0 |   0 |      --      | 1.510224e+01 |    Inf | unknown
r 1.1s|     1 |     0 |  8533 |     - |simplero|   0 |2817 | 170 | 170 |   0 |  0 |   0 |   0 |      --      | 1.484156e+01 |    Inf | unknown
r 1.1s|     1 |     0 |  8537 |     - |simplero|   0 |2817 | 170 | 170 |   0 |  0 |   0 |   0 |      --      | 1.484117e+01 |    Inf | unknown
r 1.1s|     1 |     0 |  8675 |     - |simplero|   0 |2834 | 170 | 170 |   0 |  0 |   0 |   0 |      --      | 1.352349e+01 |    Inf | unknown
r 1.2s|     1 |     0 |  8733 |     - |simplero|   0 |2834 | 170 | 170 |   0 |  0 |   0 |   0 |      --      | 1.333029e+01 |    Inf | unknown
r 1.2s|     1 |     0 |  8775 |     - |simplero|   0 |2834 | 170 | 170 |   0 |  0 |   0 |   0 |      --      | 1.327614e+01 |    Inf | unknown
r 1.2s|     1 |     0 |  8957 |     - |simplero|   0 |2851 | 170 | 170 |   0 |  0 |   0 |   0 |      --      | 1.002589e+01 |    Inf | unknown
r 1.2s|     1 |     0 |  8993 |     - |simplero|   0 |2851 | 170 | 170 |   0 |  0 |   0 |   0 |      --      | 9.958482e+00 |    Inf | unknown
 time | node  | left  |LP iter|LP it/n|mem/heur|mdpt |vars |cons |rows |cuts |sepa|confs|strbr|  dualbound   | primalbound  |  gap   | compl. 
r 1.2s|     1 |     0 |  9019 |     - |simplero|   0 |2851 | 170 | 170 |   0 |  0 |   0 |   0 |      --      | 9.950561e+00 |    Inf | unknown
r 1.2s|     1 |     0 |  9177 |     - |simplero|   0 |2868 | 170 | 170 |   0 |  0 |   0 |   0 |      --      | 8.615844e+00 |    Inf | unknown
r 1.2s|     1 |     0 |  9248 |     - |simplero|   0 |2868 | 170 | 170 |   0 |  0 |   0 |   0 |      --      | 8.466993e+00 |    Inf | unknown
r 1.2s|     1 |     0 |  9278 |     - |simplero|   0 |2868 | 170 | 170 |   0 |  0 |   0 |   0 |      --      | 8.442120e+00 |    Inf | unknown
r 1.2s|     1 |     0 |  9445 |     - |simplero|   0 |2885 | 170 | 170 |   0 |  0 |   0 |   0 |      --      | 6.638507e+00 |    Inf | unknown
r 1.2s|     1 |     0 |  9465 |     - |simplero|   0 |2885 | 170 | 170 |   0 |  0 |   0 |   0 |      --      | 6.626705e+00 |    Inf | unknown
r 1.2s|     1 |     0 |  9470 |     - |simplero|   0 |2885 | 170 | 170 |   0 |  0 |   0 |   0 |      --      | 6.626251e+00 |    Inf | unknown
  1.3s|     1 |     0 |  9567 |     - |    14M |   0 |2902 | 170 | 170 |   0 |  0 |   0 |   0 |      --      | 6.626251e+00 |    Inf | unknown
r 1.3s|     1 |     0 |  9567 |     - |simplero|   0 |2902 | 170 | 170 |   0 |  0 |   0 |   0 |      --      | 5.566426e+00 |    Inf | unknown
r 1.3s|     1 |     0 |  9613 |     - |simplero|   0 |2902 | 170 | 170 |   0 |  0 |   0 |   0 |      --      | 5.463766e+00 |    Inf | unknown
r 1.3s|     1 |     0 |  9623 |     - |simplero|   0 |2902 | 170 | 170 |   0 |  0 |   0 |   0 |      --      | 5.457769e+00 |    Inf | unknown
r 1.3s|     1 |     0 |  9626 |     - |simplero|   0 |2902 | 170 | 170 |   0 |  0 |   0 |   0 |      --      | 5.457661e+00 |    Inf | unknown
r 1.3s|     1 |     0 |  9730 |     - |simplero|   0 |2919 | 170 | 170 |   0 |  0 |   0 |   0 |      --      | 4.772281e+00 |    Inf | unknown
r 1.3s|     1 |     0 |  9868 |     - |simplero|   0 |2919 | 170 | 170 |   0 |  0 |   0 |   0 |      --      | 4.066761e+00 |    Inf | unknown
r 1.3s|     1 |     0 |  9896 |     - |simplero|   0 |2919 | 170 | 170 |   0 |  0 |   0 |   0 |      --      | 4.016863e+00 |    Inf | unknown
 time | node  | left  |LP iter|LP it/n|mem/heur|mdpt |vars |cons |rows |cuts |sepa|confs|strbr|  dualbound   | primalbound  |  gap   | compl. 
r 1.3s|     1 |     0 |  9901 |     - |simplero|   0 |2919 | 170 | 170 |   0 |  0 |   0 |   0 |      --      | 4.016198e+00 |    Inf | unknown
r 1.3s|     1 |     0 | 10039 |     - |simplero|   0 |2936 | 170 | 170 |   0 |  0 |   0 |   0 |      --      | 2.968864e+00 |    Inf | unknown
r 1.3s|     1 |     0 | 10085 |     - |simplero|   0 |2936 | 170 | 170 |   0 |  0 |   0 |   0 |      --      | 2.855181e+00 |    Inf | unknown
r 1.3s|     1 |     0 | 10089 |     - |simplero|   0 |2936 | 170 | 170 |   0 |  0 |   0 |   0 |      --      | 2.854603e+00 |    Inf | unknown
r 1.4s|     1 |     0 | 10219 |     - |simplero|   0 |2953 | 170 | 170 |   0 |  0 |   0 |   0 |      --      | 1.730899e+00 |    Inf | unknown
r 1.4s|     1 |     0 | 10270 |     - |simplero|   0 |2953 | 170 | 170 |   0 |  0 |   0 |   0 |      --      | 1.572405e+00 |    Inf | unknown
r 1.4s|     1 |     0 | 10289 |     - |simplero|   0 |2953 | 170 | 170 |   0 |  0 |   0 |   0 |      --      | 1.546447e+00 |    Inf | unknown
r 1.4s|     1 |     0 | 10396 |     - |simplero|   0 |2970 | 170 | 170 |   0 |  0 |   0 |   0 |      --      | 9.292630e-01 |    Inf | unknown
r 1.4s|     1 |     0 | 10403 |     - |simplero|   0 |2970 | 170 | 170 |   0 |  0 |   0 |   0 |      --      | 9.277407e-01 |    Inf | unknown
r 1.4s|     1 |     0 | 10479 |     - |simplero|   0 |2987 | 170 | 170 |   0 |  0 |   0 |   0 |      --      | 4.202787e-01 |    Inf | unknown
r 1.4s|     1 |     0 | 10503 |     - |simplero|   0 |2987 | 170 | 170 |   0 |  0 |   0 |   0 |      --      | 3.188397e-01 |    Inf | unknown
r 1.4s|     1 |     0 | 10505 |     - |simplero|   0 |2987 | 170 | 170 |   0 |  0 |   0 |   0 |      --      | 3.184377e-01 |    Inf | unknown
r 1.4s|     1 |     0 | 10593 |     - |simplero|   0 |3004 | 170 | 170 |   0 |  0 |   0 |   0 |      --      | 3.035384e-02 |    Inf | unknown
r 1.4s|     1 |     0 | 10600 |     - |simplero|   0 |3004 | 170 | 170 |   0 |  0 |   0 |   0 |      --      | 2.390211e-02 |    Inf | unknown
r 1.4s|     1 |     0 | 10605 |     - |simplero|   0 |3021 | 170 | 170 |   0 |  0 |   0 |   0 |      --      | 0.000000e+00 |    Inf | unknown
 time | node  | left  |LP iter|LP it/n|mem/heur|mdpt |vars |cons |rows |cuts |sepa|confs|strbr|  dualbound   | primalbound  |  gap   | compl. 
  1.4s|     1 |     0 | 10605 |     - |    15M |   0 |3021 | 170 | 170 |   0 |  0 |   0 |   0 | 0.000000e+00 | 0.000000e+00 |   0.00%| unknown
  1.4s|     1 |     0 | 10605 |     - |    15M |   0 |3021 | 170 | 170 |   0 |  0 |   0 |   0 | 0.000000e+00 | 0.000000e+00 |   0.00%| unknown

SCIP Status        : problem is solved [optimal solution found]
Solving Time (sec) : 1.45
Solving Nodes      : 1
Primal Bound       : +0.00000000000000e+00 (57 solutions)
Dual Bound         : +0.00000000000000e+00
Gap                : 0.00 %

written transformed problem to file <results_rootrelaxation/bin018_050_004.srr.lp>
written transformed problem to file <results_rootrelaxation/bin018_050_004.srr.cip>

written solution information to file <results_rootrelaxation/bin018_050_004.srr.sol>



